c description: Random 3-CNF over 7 variables and 6 clauses
c generator: CNFgen (0.9.2)
c copyright: (C) 2012-2022 Massimo Lauria <massimo.lauria@uniroma1.it>
c url: https://massimolauria.net/cnfgen
c command line: cnfgen randkcnf 3 7 6
c
p cnf 7 6
2 -3 -7 0
-1 -2 -5 0
3 -4 -6 0
-3 6 -7 0
-2 -3 -4 0
-2 5 -6 0
